c Generated with `cnfgen`
c (C) 2012-2018 Massimo Lauria <lauria.massimo@gmail.com>
c https://massimolauria.net/cnfgen
c
c COMMAND LINE: cnfgen tseitin --gnd 100 5 --charge randomodd
c
p cnf 250 1600
1 2 3 4 5 0
1 2 3 -4 -5 0
1 2 -3 4 -5 0
1 2 -3 -4 5 0
1 -2 3 4 -5 0
1 -2 3 -4 5 0
1 -2 -3 4 5 0
1 -2 -3 -4 -5 0
-1 2 3 4 -5 0
-1 2 3 -4 5 0
-1 2 -3 4 5 0
-1 2 -3 -4 -5 0
-1 -2 3 4 5 0
-1 -2 3 -4 -5 0
-1 -2 -3 4 -5 0
-1 -2 -3 -4 5 0
6 7 8 9 -10 0
6 7 8 -9 10 0
6 7 -8 9 10 0
6 7 -8 -9 -10 0
6 -7 8 9 10 0
6 -7 8 -9 -10 0
6 -7 -8 9 -10 0
6 -7 -8 -9 10 0
-6 7 8 9 10 0
-6 7 8 -9 -10 0
-6 7 -8 9 -10 0
-6 7 -8 -9 10 0
-6 -7 8 9 -10 0
-6 -7 8 -9 10 0
-6 -7 -8 9 10 0
-6 -7 -8 -9 -10 0
11 12 13 14 -15 0
11 12 13 -14 15 0
11 12 -13 14 15 0
11 12 -13 -14 -15 0
11 -12 13 14 15 0
11 -12 13 -14 -15 0
11 -12 -13 14 -15 0
11 -12 -13 -14 15 0
-11 12 13 14 15 0
-11 12 13 -14 -15 0
-11 12 -13 14 -15 0
-11 12 -13 -14 15 0
-11 -12 13 14 -15 0
-11 -12 13 -14 15 0
-11 -12 -13 14 15 0
-11 -12 -13 -14 -15 0
16 17 18 19 -20 0
16 17 18 -19 20 0
16 17 -18 19 20 0
16 17 -18 -19 -20 0
16 -17 18 19 20 0
16 -17 18 -19 -20 0
16 -17 -18 19 -20 0
16 -17 -18 -19 20 0
-16 17 18 19 20 0
-16 17 18 -19 -20 0
-16 17 -18 19 -20 0
-16 17 -18 -19 20 0
-16 -17 18 19 -20 0
-16 -17 18 -19 20 0
-16 -17 -18 19 20 0
-16 -17 -18 -19 -20 0
21 22 23 24 -25 0
21 22 23 -24 25 0
21 22 -23 24 25 0
21 22 -23 -24 -25 0
21 -22 23 24 25 0
21 -22 23 -24 -25 0
21 -22 -23 24 -25 0
21 -22 -23 -24 25 0
-21 22 23 24 25 0
-21 22 23 -24 -25 0
-21 22 -23 24 -25 0
-21 22 -23 -24 25 0
-21 -22 23 24 -25 0
-21 -22 23 -24 25 0
-21 -22 -23 24 25 0
-21 -22 -23 -24 -25 0
26 27 28 29 -30 0
26 27 28 -29 30 0
26 27 -28 29 30 0
26 27 -28 -29 -30 0
26 -27 28 29 30 0
26 -27 28 -29 -30 0
26 -27 -28 29 -30 0
26 -27 -28 -29 30 0
-26 27 28 29 30 0
-26 27 28 -29 -30 0
-26 27 -28 29 -30 0
-26 27 -28 -29 30 0
-26 -27 28 29 -30 0
-26 -27 28 -29 30 0
-26 -27 -28 29 30 0
-26 -27 -28 -29 -30 0
21 31 32 33 34 0
21 31 32 -33 -34 0
21 31 -32 33 -34 0
21 31 -32 -33 34 0
21 -31 32 33 -34 0
21 -31 32 -33 34 0
21 -31 -32 33 34 0
21 -31 -32 -33 -34 0
-21 31 32 33 -34 0
-21 31 32 -33 34 0
-21 31 -32 33 34 0
-21 31 -32 -33 -34 0
-21 -31 32 33 34 0
-21 -31 32 -33 -34 0
-21 -31 -32 33 -34 0
-21 -31 -32 -33 34 0
35 36 37 38 -39 0
35 36 37 -38 39 0
35 36 -37 38 39 0
35 36 -37 -38 -39 0
35 -36 37 38 39 0
35 -36 37 -38 -39 0
35 -36 -37 38 -39 0
35 -36 -37 -38 39 0
-35 36 37 38 39 0
-35 36 37 -38 -39 0
-35 36 -37 38 -39 0
-35 36 -37 -38 39 0
-35 -36 37 38 -39 0
-35 -36 37 -38 39 0
-35 -36 -37 38 39 0
-35 -36 -37 -38 -39 0
40 41 42 43 44 0
40 41 42 -43 -44 0
40 41 -42 43 -44 0
40 41 -42 -43 44 0
40 -41 42 43 -44 0
40 -41 42 -43 44 0
40 -41 -42 43 44 0
40 -41 -42 -43 -44 0
-40 41 42 43 -44 0
-40 41 42 -43 44 0
-40 41 -42 43 44 0
-40 41 -42 -43 -44 0
-40 -41 42 43 44 0
-40 -41 42 -43 -44 0
-40 -41 -42 43 -44 0
-40 -41 -42 -43 44 0
6 45 46 47 48 0
6 45 46 -47 -48 0
6 45 -46 47 -48 0
6 45 -46 -47 48 0
6 -45 46 47 -48 0
6 -45 46 -47 48 0
6 -45 -46 47 48 0
6 -45 -46 -47 -48 0
-6 45 46 47 -48 0
-6 45 46 -47 48 0
-6 45 -46 47 48 0
-6 45 -46 -47 -48 0
-6 -45 46 47 48 0
-6 -45 46 -47 -48 0
-6 -45 -46 47 -48 0
-6 -45 -46 -47 48 0
49 50 51 52 53 0
49 50 51 -52 -53 0
49 50 -51 52 -53 0
49 50 -51 -52 53 0
49 -50 51 52 -53 0
49 -50 51 -52 53 0
49 -50 -51 52 53 0
49 -50 -51 -52 -53 0
-49 50 51 52 -53 0
-49 50 51 -52 53 0
-49 50 -51 52 53 0
-49 50 -51 -52 -53 0
-49 -50 51 52 53 0
-49 -50 51 -52 -53 0
-49 -50 -51 52 -53 0
-49 -50 -51 -52 53 0
54 55 56 57 58 0
54 55 56 -57 -58 0
54 55 -56 57 -58 0
54 55 -56 -57 58 0
54 -55 56 57 -58 0
54 -55 56 -57 58 0
54 -55 -56 57 58 0
54 -55 -56 -57 -58 0
-54 55 56 57 -58 0
-54 55 56 -57 58 0
-54 55 -56 57 58 0
-54 55 -56 -57 -58 0
-54 -55 56 57 58 0
-54 -55 56 -57 -58 0
-54 -55 -56 57 -58 0
-54 -55 -56 -57 58 0
59 60 61 62 63 0
59 60 61 -62 -63 0
59 60 -61 62 -63 0
59 60 -61 -62 63 0
59 -60 61 62 -63 0
59 -60 61 -62 63 0
59 -60 -61 62 63 0
59 -60 -61 -62 -63 0
-59 60 61 62 -63 0
-59 60 61 -62 63 0
-59 60 -61 62 63 0
-59 60 -61 -62 -63 0
-59 -60 61 62 63 0
-59 -60 61 -62 -63 0
-59 -60 -61 62 -63 0
-59 -60 -61 -62 63 0
35 64 65 66 -67 0
35 64 65 -66 67 0
35 64 -65 66 67 0
35 64 -65 -66 -67 0
35 -64 65 66 67 0
35 -64 65 -66 -67 0
35 -64 -65 66 -67 0
35 -64 -65 -66 67 0
-35 64 65 66 67 0
-35 64 65 -66 -67 0
-35 64 -65 66 -67 0
-35 64 -65 -66 67 0
-35 -64 65 66 -67 0
-35 -64 65 -66 67 0
-35 -64 -65 66 67 0
-35 -64 -65 -66 -67 0
31 68 69 70 -71 0
31 68 69 -70 71 0
31 68 -69 70 71 0
31 68 -69 -70 -71 0
31 -68 69 70 71 0
31 -68 69 -70 -71 0
31 -68 -69 70 -71 0
31 -68 -69 -70 71 0
-31 68 69 70 71 0
-31 68 69 -70 -71 0
-31 68 -69 70 -71 0
-31 68 -69 -70 71 0
-31 -68 69 70 -71 0
-31 -68 69 -70 71 0
-31 -68 -69 70 71 0
-31 -68 -69 -70 -71 0
72 73 74 75 76 0
72 73 74 -75 -76 0
72 73 -74 75 -76 0
72 73 -74 -75 76 0
72 -73 74 75 -76 0
72 -73 74 -75 76 0
72 -73 -74 75 76 0
72 -73 -74 -75 -76 0
-72 73 74 75 -76 0
-72 73 74 -75 76 0
-72 73 -74 75 76 0
-72 73 -74 -75 -76 0
-72 -73 74 75 76 0
-72 -73 74 -75 -76 0
-72 -73 -74 75 -76 0
-72 -73 -74 -75 76 0
72 77 78 79 80 0
72 77 78 -79 -80 0
72 77 -78 79 -80 0
72 77 -78 -79 80 0
72 -77 78 79 -80 0
72 -77 78 -79 80 0
72 -77 -78 79 80 0
72 -77 -78 -79 -80 0
-72 77 78 79 -80 0
-72 77 78 -79 80 0
-72 77 -78 79 80 0
-72 77 -78 -79 -80 0
-72 -77 78 79 80 0
-72 -77 78 -79 -80 0
-72 -77 -78 79 -80 0
-72 -77 -78 -79 80 0
81 82 83 84 -85 0
81 82 83 -84 85 0
81 82 -83 84 85 0
81 82 -83 -84 -85 0
81 -82 83 84 85 0
81 -82 83 -84 -85 0
81 -82 -83 84 -85 0
81 -82 -83 -84 85 0
-81 82 83 84 85 0
-81 82 83 -84 -85 0
-81 82 -83 84 -85 0
-81 82 -83 -84 85 0
-81 -82 83 84 -85 0
-81 -82 83 -84 85 0
-81 -82 -83 84 85 0
-81 -82 -83 -84 -85 0
86 87 88 89 -90 0
86 87 88 -89 90 0
86 87 -88 89 90 0
86 87 -88 -89 -90 0
86 -87 88 89 90 0
86 -87 88 -89 -90 0
86 -87 -88 89 -90 0
86 -87 -88 -89 90 0
-86 87 88 89 90 0
-86 87 88 -89 -90 0
-86 87 -88 89 -90 0
-86 87 -88 -89 90 0
-86 -87 88 89 -90 0
-86 -87 88 -89 90 0
-86 -87 -88 89 90 0
-86 -87 -88 -89 -90 0
40 45 91 92 -93 0
40 45 91 -92 93 0
40 45 -91 92 93 0
40 45 -91 -92 -93 0
40 -45 91 92 93 0
40 -45 91 -92 -93 0
40 -45 -91 92 -93 0
40 -45 -91 -92 93 0
-40 45 91 92 93 0
-40 45 91 -92 -93 0
-40 45 -91 92 -93 0
-40 45 -91 -92 93 0
-40 -45 91 92 -93 0
-40 -45 91 -92 93 0
-40 -45 -91 92 93 0
-40 -45 -91 -92 -93 0
22 94 95 96 97 0
22 94 95 -96 -97 0
22 94 -95 96 -97 0
22 94 -95 -96 97 0
22 -94 95 96 -97 0
22 -94 95 -96 97 0
22 -94 -95 96 97 0
22 -94 -95 -96 -97 0
-22 94 95 96 -97 0
-22 94 95 -96 97 0
-22 94 -95 96 97 0
-22 94 -95 -96 -97 0
-22 -94 95 96 97 0
-22 -94 95 -96 -97 0
-22 -94 -95 96 -97 0
-22 -94 -95 -96 97 0
98 99 100 101 -102 0
98 99 100 -101 102 0
98 99 -100 101 102 0
98 99 -100 -101 -102 0
98 -99 100 101 102 0
98 -99 100 -101 -102 0
98 -99 -100 101 -102 0
98 -99 -100 -101 102 0
-98 99 100 101 102 0
-98 99 100 -101 -102 0
-98 99 -100 101 -102 0
-98 99 -100 -101 102 0
-98 -99 100 101 -102 0
-98 -99 100 -101 102 0
-98 -99 -100 101 102 0
-98 -99 -100 -101 -102 0
11 73 103 104 -105 0
11 73 103 -104 105 0
11 73 -103 104 105 0
11 73 -103 -104 -105 0
11 -73 103 104 105 0
11 -73 103 -104 -105 0
11 -73 -103 104 -105 0
11 -73 -103 -104 105 0
-11 73 103 104 105 0
-11 73 103 -104 -105 0
-11 73 -103 104 -105 0
-11 73 -103 -104 105 0
-11 -73 103 104 -105 0
-11 -73 103 -104 105 0
-11 -73 -103 104 105 0
-11 -73 -103 -104 -105 0
49 106 107 108 -109 0
49 106 107 -108 109 0
49 106 -107 108 109 0
49 106 -107 -108 -109 0
49 -106 107 108 109 0
49 -106 107 -108 -109 0
49 -106 -107 108 -109 0
49 -106 -107 -108 109 0
-49 106 107 108 109 0
-49 106 107 -108 -109 0
-49 106 -107 108 -109 0
-49 106 -107 -108 109 0
-49 -106 107 108 -109 0
-49 -106 107 -108 109 0
-49 -106 -107 108 109 0
-49 -106 -107 -108 -109 0
110 111 112 113 -114 0
110 111 112 -113 114 0
110 111 -112 113 114 0
110 111 -112 -113 -114 0
110 -111 112 113 114 0
110 -111 112 -113 -114 0
110 -111 -112 113 -114 0
110 -111 -112 -113 114 0
-110 111 112 113 114 0
-110 111 112 -113 -114 0
-110 111 -112 113 -114 0
-110 111 -112 -113 114 0
-110 -111 112 113 -114 0
-110 -111 112 -113 114 0
-110 -111 -112 113 114 0
-110 -111 -112 -113 -114 0
98 115 116 117 118 0
98 115 116 -117 -118 0
98 115 -116 117 -118 0
98 115 -116 -117 118 0
98 -115 116 117 -118 0
98 -115 116 -117 118 0
98 -115 -116 117 118 0
98 -115 -116 -117 -118 0
-98 115 116 117 -118 0
-98 115 116 -117 118 0
-98 115 -116 117 118 0
-98 115 -116 -117 -118 0
-98 -115 116 117 118 0
-98 -115 116 -117 -118 0
-98 -115 -116 117 -118 0
-98 -115 -116 -117 118 0
1 119 120 121 -122 0
1 119 120 -121 122 0
1 119 -120 121 122 0
1 119 -120 -121 -122 0
1 -119 120 121 122 0
1 -119 120 -121 -122 0
1 -119 -120 121 -122 0
1 -119 -120 -121 122 0
-1 119 120 121 122 0
-1 119 120 -121 -122 0
-1 119 -120 121 -122 0
-1 119 -120 -121 122 0
-1 -119 120 121 -122 0
-1 -119 120 -121 122 0
-1 -119 -120 121 122 0
-1 -119 -120 -121 -122 0
106 115 123 124 125 0
106 115 123 -124 -125 0
106 115 -123 124 -125 0
106 115 -123 -124 125 0
106 -115 123 124 -125 0
106 -115 123 -124 125 0
106 -115 -123 124 125 0
106 -115 -123 -124 -125 0
-106 115 123 124 -125 0
-106 115 123 -124 125 0
-106 115 -123 124 125 0
-106 115 -123 -124 -125 0
-106 -115 123 124 125 0
-106 -115 123 -124 -125 0
-106 -115 -123 124 -125 0
-106 -115 -123 -124 125 0
99 126 127 128 129 0
99 126 127 -128 -129 0
99 126 -127 128 -129 0
99 126 -127 -128 129 0
99 -126 127 128 -129 0
99 -126 127 -128 129 0
99 -126 -127 128 129 0
99 -126 -127 -128 -129 0
-99 126 127 128 -129 0
-99 126 127 -128 129 0
-99 126 -127 128 129 0
-99 126 -127 -128 -129 0
-99 -126 127 128 129 0
-99 -126 127 -128 -129 0
-99 -126 -127 128 -129 0
-99 -126 -127 -128 129 0
130 131 132 133 134 0
130 131 132 -133 -134 0
130 131 -132 133 -134 0
130 131 -132 -133 134 0
130 -131 132 133 -134 0
130 -131 132 -133 134 0
130 -131 -132 133 134 0
130 -131 -132 -133 -134 0
-130 131 132 133 -134 0
-130 131 132 -133 134 0
-130 131 -132 133 134 0
-130 131 -132 -133 -134 0
-130 -131 132 133 134 0
-130 -131 132 -133 -134 0
-130 -131 -132 133 -134 0
-130 -131 -132 -133 134 0
50 126 135 136 -137 0
50 126 135 -136 137 0
50 126 -135 136 137 0
50 126 -135 -136 -137 0
50 -126 135 136 137 0
50 -126 135 -136 -137 0
50 -126 -135 136 -137 0
50 -126 -135 -136 137 0
-50 126 135 136 137 0
-50 126 135 -136 -137 0
-50 126 -135 136 -137 0
-50 126 -135 -136 137 0
-50 -126 135 136 -137 0
-50 -126 135 -136 137 0
-50 -126 -135 136 137 0
-50 -126 -135 -136 -137 0
68 86 130 138 139 0
68 86 130 -138 -139 0
68 86 -130 138 -139 0
68 86 -130 -138 139 0
68 -86 130 138 -139 0
68 -86 130 -138 139 0
68 -86 -130 138 139 0
68 -86 -130 -138 -139 0
-68 86 130 138 -139 0
-68 86 130 -138 139 0
-68 86 -130 138 139 0
-68 86 -130 -138 -139 0
-68 -86 130 138 139 0
-68 -86 130 -138 -139 0
-68 -86 -130 138 -139 0
-68 -86 -130 -138 139 0
2 46 140 141 142 0
2 46 140 -141 -142 0
2 46 -140 141 -142 0
2 46 -140 -141 142 0
2 -46 140 141 -142 0
2 -46 140 -141 142 0
2 -46 -140 141 142 0
2 -46 -140 -141 -142 0
-2 46 140 141 -142 0
-2 46 140 -141 142 0
-2 46 -140 141 142 0
-2 46 -140 -141 -142 0
-2 -46 140 141 142 0
-2 -46 140 -141 -142 0
-2 -46 -140 141 -142 0
-2 -46 -140 -141 142 0
26 41 54 143 -144 0
26 41 54 -143 144 0
26 41 -54 143 144 0
26 41 -54 -143 -144 0
26 -41 54 143 144 0
26 -41 54 -143 -144 0
26 -41 -54 143 -144 0
26 -41 -54 -143 144 0
-26 41 54 143 144 0
-26 41 54 -143 -144 0
-26 41 -54 143 -144 0
-26 41 -54 -143 144 0
-26 -41 54 143 -144 0
-26 -41 54 -143 144 0
-26 -41 -54 143 144 0
-26 -41 -54 -143 -144 0
12 59 145 146 147 0
12 59 145 -146 -147 0
12 59 -145 146 -147 0
12 59 -145 -146 147 0
12 -59 145 146 -147 0
12 -59 145 -146 147 0
12 -59 -145 146 147 0
12 -59 -145 -146 -147 0
-12 59 145 146 -147 0
-12 59 145 -146 147 0
-12 59 -145 146 147 0
-12 59 -145 -146 -147 0
-12 -59 145 146 147 0
-12 -59 145 -146 -147 0
-12 -59 -145 146 -147 0
-12 -59 -145 -146 147 0
51 87 140 148 149 0
51 87 140 -148 -149 0
51 87 -140 148 -149 0
51 87 -140 -148 149 0
51 -87 140 148 -149 0
51 -87 140 -148 149 0
51 -87 -140 148 149 0
51 -87 -140 -148 -149 0
-51 87 140 148 -149 0
-51 87 140 -148 149 0
-51 87 -140 148 149 0
-51 87 -140 -148 -149 0
-51 -87 140 148 149 0
-51 -87 140 -148 -149 0
-51 -87 -140 148 -149 0
-51 -87 -140 -148 149 0
77 150 151 152 153 0
77 150 151 -152 -153 0
77 150 -151 152 -153 0
77 150 -151 -152 153 0
77 -150 151 152 -153 0
77 -150 151 -152 153 0
77 -150 -151 152 153 0
77 -150 -151 -152 -153 0
-77 150 151 152 -153 0
-77 150 151 -152 153 0
-77 150 -151 152 153 0
-77 150 -151 -152 -153 0
-77 -150 151 152 153 0
-77 -150 151 -152 -153 0
-77 -150 -151 152 -153 0
-77 -150 -151 -152 153 0
42 131 154 155 156 0
42 131 154 -155 -156 0
42 131 -154 155 -156 0
42 131 -154 -155 156 0
42 -131 154 155 -156 0
42 -131 154 -155 156 0
42 -131 -154 155 156 0
42 -131 -154 -155 -156 0
-42 131 154 155 -156 0
-42 131 154 -155 156 0
-42 131 -154 155 156 0
-42 131 -154 -155 -156 0
-42 -131 154 155 156 0
-42 -131 154 -155 -156 0
-42 -131 -154 155 -156 0
-42 -131 -154 -155 156 0
138 148 157 158 159 0
138 148 157 -158 -159 0
138 148 -157 158 -159 0
138 148 -157 -158 159 0
138 -148 157 158 -159 0
138 -148 157 -158 159 0
138 -148 -157 158 159 0
138 -148 -157 -158 -159 0
-138 148 157 158 -159 0
-138 148 157 -158 159 0
-138 148 -157 158 159 0
-138 148 -157 -158 -159 0
-138 -148 157 158 159 0
-138 -148 157 -158 -159 0
-138 -148 -157 158 -159 0
-138 -148 -157 -158 159 0
154 160 161 162 -163 0
154 160 161 -162 163 0
154 160 -161 162 163 0
154 160 -161 -162 -163 0
154 -160 161 162 163 0
154 -160 161 -162 -163 0
154 -160 -161 162 -163 0
154 -160 -161 -162 163 0
-154 160 161 162 163 0
-154 160 161 -162 -163 0
-154 160 -161 162 -163 0
-154 160 -161 -162 163 0
-154 -160 161 162 -163 0
-154 -160 161 -162 163 0
-154 -160 -161 162 163 0
-154 -160 -161 -162 -163 0
88 100 116 123 -164 0
88 100 116 -123 164 0
88 100 -116 123 164 0
88 100 -116 -123 -164 0
88 -100 116 123 164 0
88 -100 116 -123 -164 0
88 -100 -116 123 -164 0
88 -100 -116 -123 164 0
-88 100 116 123 164 0
-88 100 116 -123 -164 0
-88 100 -116 123 -164 0
-88 100 -116 -123 164 0
-88 -100 116 123 -164 0
-88 -100 116 -123 164 0
-88 -100 -116 123 164 0
-88 -100 -116 -123 -164 0
60 110 165 166 -167 0
60 110 165 -166 167 0
60 110 -165 166 167 0
60 110 -165 -166 -167 0
60 -110 165 166 167 0
60 -110 165 -166 -167 0
60 -110 -165 166 -167 0
60 -110 -165 -166 167 0
-60 110 165 166 167 0
-60 110 165 -166 -167 0
-60 110 -165 166 -167 0
-60 110 -165 -166 167 0
-60 -110 165 166 -167 0
-60 -110 165 -166 167 0
-60 -110 -165 166 167 0
-60 -110 -165 -166 -167 0
55 64 69 168 169 0
55 64 69 -168 -169 0
55 64 -69 168 -169 0
55 64 -69 -168 169 0
55 -64 69 168 -169 0
55 -64 69 -168 169 0
55 -64 -69 168 169 0
55 -64 -69 -168 -169 0
-55 64 69 168 -169 0
-55 64 69 -168 169 0
-55 64 -69 168 169 0
-55 64 -69 -168 -169 0
-55 -64 69 168 169 0
-55 -64 69 -168 -169 0
-55 -64 -69 168 -169 0
-55 -64 -69 -168 169 0
56 170 171 172 -173 0
56 170 171 -172 173 0
56 170 -171 172 173 0
56 170 -171 -172 -173 0
56 -170 171 172 173 0
56 -170 171 -172 -173 0
56 -170 -171 172 -173 0
56 -170 -171 -172 173 0
-56 170 171 172 173 0
-56 170 171 -172 -173 0
-56 170 -171 172 -173 0
-56 170 -171 -172 173 0
-56 -170 171 172 -173 0
-56 -170 171 -172 173 0
-56 -170 -171 172 173 0
-56 -170 -171 -172 -173 0
103 135 157 174 -175 0
103 135 157 -174 175 0
103 135 -157 174 175 0
103 135 -157 -174 -175 0
103 -135 157 174 175 0
103 -135 157 -174 -175 0
103 -135 -157 174 -175 0
103 -135 -157 -174 175 0
-103 135 157 174 175 0
-103 135 157 -174 -175 0
-103 135 -157 174 -175 0
-103 135 -157 -174 175 0
-103 -135 157 174 -175 0
-103 -135 157 -174 175 0
-103 -135 -157 174 175 0
-103 -135 -157 -174 -175 0
3 70 176 177 178 0
3 70 176 -177 -178 0
3 70 -176 177 -178 0
3 70 -176 -177 178 0
3 -70 176 177 -178 0
3 -70 176 -177 178 0
3 -70 -176 177 178 0
3 -70 -176 -177 -178 0
-3 70 176 177 -178 0
-3 70 176 -177 178 0
-3 70 -176 177 178 0
-3 70 -176 -177 -178 0
-3 -70 176 177 178 0
-3 -70 176 -177 -178 0
-3 -70 -176 177 -178 0
-3 -70 -176 -177 178 0
179 180 181 182 -183 0
179 180 181 -182 183 0
179 180 -181 182 183 0
179 180 -181 -182 -183 0
179 -180 181 182 183 0
179 -180 181 -182 -183 0
179 -180 -181 182 -183 0
179 -180 -181 -182 183 0
-179 180 181 182 183 0
-179 180 181 -182 -183 0
-179 180 -181 182 -183 0
-179 180 -181 -182 183 0
-179 -180 181 182 -183 0
-179 -180 181 -182 183 0
-179 -180 -181 182 183 0
-179 -180 -181 -182 -183 0
16 81 170 184 -185 0
16 81 170 -184 185 0
16 81 -170 184 185 0
16 81 -170 -184 -185 0
16 -81 170 184 185 0
16 -81 170 -184 -185 0
16 -81 -170 184 -185 0
16 -81 -170 -184 185 0
-16 81 170 184 185 0
-16 81 170 -184 -185 0
-16 81 -170 184 -185 0
-16 81 -170 -184 185 0
-16 -81 170 184 -185 0
-16 -81 170 -184 185 0
-16 -81 -170 184 185 0
-16 -81 -170 -184 -185 0
47 82 186 187 188 0
47 82 186 -187 -188 0
47 82 -186 187 -188 0
47 82 -186 -187 188 0
47 -82 186 187 -188 0
47 -82 186 -187 188 0
47 -82 -186 187 188 0
47 -82 -186 -187 -188 0
-47 82 186 187 -188 0
-47 82 186 -187 188 0
-47 82 -186 187 188 0
-47 82 -186 -187 -188 0
-47 -82 186 187 188 0
-47 -82 186 -187 -188 0
-47 -82 -186 187 -188 0
-47 -82 -186 -187 188 0
7 189 190 191 -192 0
7 189 190 -191 192 0
7 189 -190 191 192 0
7 189 -190 -191 -192 0
7 -189 190 191 192 0
7 -189 190 -191 -192 0
7 -189 -190 191 -192 0
7 -189 -190 -191 192 0
-7 189 190 191 192 0
-7 189 190 -191 -192 0
-7 189 -190 191 -192 0
-7 189 -190 -191 192 0
-7 -189 190 191 -192 0
-7 -189 190 -191 192 0
-7 -189 -190 191 192 0
-7 -189 -190 -191 -192 0
83 107 193 194 195 0
83 107 193 -194 -195 0
83 107 -193 194 -195 0
83 107 -193 -194 195 0
83 -107 193 194 -195 0
83 -107 193 -194 195 0
83 -107 -193 194 195 0
83 -107 -193 -194 -195 0
-83 107 193 194 -195 0
-83 107 193 -194 195 0
-83 107 -193 194 195 0
-83 107 -193 -194 -195 0
-83 -107 193 194 195 0
-83 -107 193 -194 -195 0
-83 -107 -193 194 -195 0
-83 -107 -193 -194 195 0
91 150 179 196 -197 0
91 150 179 -196 197 0
91 150 -179 196 197 0
91 150 -179 -196 -197 0
91 -150 179 196 197 0
91 -150 179 -196 -197 0
91 -150 -179 196 -197 0
91 -150 -179 -196 197 0
-91 150 179 196 197 0
-91 150 179 -196 -197 0
-91 150 -179 196 -197 0
-91 150 -179 -196 197 0
-91 -150 179 196 -197 0
-91 -150 179 -196 197 0
-91 -150 -179 196 197 0
-91 -150 -179 -196 -197 0
165 198 199 200 -201 0
165 198 199 -200 201 0
165 198 -199 200 201 0
165 198 -199 -200 -201 0
165 -198 199 200 201 0
165 -198 199 -200 -201 0
165 -198 -199 200 -201 0
165 -198 -199 -200 201 0
-165 198 199 200 201 0
-165 198 199 -200 -201 0
-165 198 -199 200 -201 0
-165 198 -199 -200 201 0
-165 -198 199 200 -201 0
-165 -198 199 -200 201 0
-165 -198 -199 200 201 0
-165 -198 -199 -200 -201 0
78 89 119 151 -202 0
78 89 119 -151 202 0
78 89 -119 151 202 0
78 89 -119 -151 -202 0
78 -89 119 151 202 0
78 -89 119 -151 -202 0
78 -89 -119 151 -202 0
78 -89 -119 -151 202 0
-78 89 119 151 202 0
-78 89 119 -151 -202 0
-78 89 -119 151 -202 0
-78 89 -119 -151 202 0
-78 -89 119 151 -202 0
-78 -89 119 -151 202 0
-78 -89 -119 151 202 0
-78 -89 -119 -151 -202 0
61 74 145 189 -203 0
61 74 145 -189 203 0
61 74 -145 189 203 0
61 74 -145 -189 -203 0
61 -74 145 189 203 0
61 -74 145 -189 -203 0
61 -74 -145 189 -203 0
61 -74 -145 -189 203 0
-61 74 145 189 203 0
-61 74 145 -189 -203 0
-61 74 -145 189 -203 0
-61 74 -145 -189 203 0
-61 -74 145 189 -203 0
-61 -74 145 -189 203 0
-61 -74 -145 189 203 0
-61 -74 -145 -189 -203 0
36 94 104 132 204 0
36 94 104 -132 -204 0
36 94 -104 132 -204 0
36 94 -104 -132 204 0
36 -94 104 132 -204 0
36 -94 104 -132 204 0
36 -94 -104 132 204 0
36 -94 -104 -132 -204 0
-36 94 104 132 -204 0
-36 94 104 -132 204 0
-36 94 -104 132 204 0
-36 94 -104 -132 -204 0
-36 -94 104 132 204 0
-36 -94 104 -132 -204 0
-36 -94 -104 132 -204 0
-36 -94 -104 -132 204 0
62 92 108 205 206 0
62 92 108 -205 -206 0
62 92 -108 205 -206 0
62 92 -108 -205 206 0
62 -92 108 205 -206 0
62 -92 108 -205 206 0
62 -92 -108 205 206 0
62 -92 -108 -205 -206 0
-62 92 108 205 -206 0
-62 92 108 -205 206 0
-62 92 -108 205 206 0
-62 92 -108 -205 -206 0
-62 -92 108 205 206 0
-62 -92 108 -205 -206 0
-62 -92 -108 205 -206 0
-62 -92 -108 -205 206 0
52 146 168 203 207 0
52 146 168 -203 -207 0
52 146 -168 203 -207 0
52 146 -168 -203 207 0
52 -146 168 203 -207 0
52 -146 168 -203 207 0
52 -146 -168 203 207 0
52 -146 -168 -203 -207 0
-52 146 168 203 -207 0
-52 146 168 -203 207 0
-52 146 -168 203 207 0
-52 146 -168 -203 -207 0
-52 -146 168 203 207 0
-52 -146 168 -203 -207 0
-52 -146 -168 203 -207 0
-52 -146 -168 -203 207 0
147 208 209 210 -211 0
147 208 209 -210 211 0
147 208 -209 210 211 0
147 208 -209 -210 -211 0
147 -208 209 210 211 0
147 -208 209 -210 -211 0
147 -208 -209 210 -211 0
147 -208 -209 -210 211 0
-147 208 209 210 211 0
-147 208 209 -210 -211 0
-147 208 -209 210 -211 0
-147 208 -209 -210 211 0
-147 -208 209 210 -211 0
-147 -208 209 -210 211 0
-147 -208 -209 210 211 0
-147 -208 -209 -210 -211 0
32 95 176 212 -213 0
32 95 176 -212 213 0
32 95 -176 212 213 0
32 95 -176 -212 -213 0
32 -95 176 212 213 0
32 -95 176 -212 -213 0
32 -95 -176 212 -213 0
32 -95 -176 -212 213 0
-32 95 176 212 213 0
-32 95 176 -212 -213 0
-32 95 -176 212 -213 0
-32 95 -176 -212 213 0
-32 -95 176 212 -213 0
-32 -95 176 -212 213 0
-32 -95 -176 212 213 0
-32 -95 -176 -212 -213 0
23 37 214 215 -216 0
23 37 214 -215 216 0
23 37 -214 215 216 0
23 37 -214 -215 -216 0
23 -37 214 215 216 0
23 -37 214 -215 -216 0
23 -37 -214 215 -216 0
23 -37 -214 -215 216 0
-23 37 214 215 216 0
-23 37 214 -215 -216 0
-23 37 -214 215 -216 0
-23 37 -214 -215 216 0
-23 -37 214 215 -216 0
-23 -37 214 -215 216 0
-23 -37 -214 215 216 0
-23 -37 -214 -215 -216 0
53 214 217 218 -219 0
53 214 217 -218 219 0
53 214 -217 218 219 0
53 214 -217 -218 -219 0
53 -214 217 218 219 0
53 -214 217 -218 -219 0
53 -214 -217 218 -219 0
53 -214 -217 -218 219 0
-53 214 217 218 219 0
-53 214 217 -218 -219 0
-53 214 -217 218 -219 0
-53 214 -217 -218 219 0
-53 -214 217 218 -219 0
-53 -214 217 -218 219 0
-53 -214 -217 218 219 0
-53 -214 -217 -218 -219 0
33 120 205 217 220 0
33 120 205 -217 -220 0
33 120 -205 217 -220 0
33 120 -205 -217 220 0
33 -120 205 217 -220 0
33 -120 205 -217 220 0
33 -120 -205 217 220 0
33 -120 -205 -217 -220 0
-33 120 205 217 -220 0
-33 120 205 -217 220 0
-33 120 -205 217 220 0
-33 120 -205 -217 -220 0
-33 -120 205 217 220 0
-33 -120 205 -217 -220 0
-33 -120 -205 217 -220 0
-33 -120 -205 -217 220 0
65 196 198 202 -221 0
65 196 198 -202 221 0
65 196 -198 202 221 0
65 196 -198 -202 -221 0
65 -196 198 202 221 0
65 -196 198 -202 -221 0
65 -196 -198 202 -221 0
65 -196 -198 -202 221 0
-65 196 198 202 221 0
-65 196 198 -202 -221 0
-65 196 -198 202 -221 0
-65 196 -198 -202 221 0
-65 -196 198 202 -221 0
-65 -196 198 -202 221 0
-65 -196 -198 202 221 0
-65 -196 -198 -202 -221 0
117 180 222 223 224 0
117 180 222 -223 -224 0
117 180 -222 223 -224 0
117 180 -222 -223 224 0
117 -180 222 223 -224 0
117 -180 222 -223 224 0
117 -180 -222 223 224 0
117 -180 -222 -223 -224 0
-117 180 222 223 -224 0
-117 180 222 -223 224 0
-117 180 -222 223 224 0
-117 180 -222 -223 -224 0
-117 -180 222 223 224 0
-117 -180 222 -223 -224 0
-117 -180 -222 223 -224 0
-117 -180 -222 -223 224 0
34 160 207 225 -226 0
34 160 207 -225 226 0
34 160 -207 225 226 0
34 160 -207 -225 -226 0
34 -160 207 225 226 0
34 -160 207 -225 -226 0
34 -160 -207 225 -226 0
34 -160 -207 -225 226 0
-34 160 207 225 226 0
-34 160 207 -225 -226 0
-34 160 -207 225 -226 0
-34 160 -207 -225 226 0
-34 -160 207 225 -226 0
-34 -160 207 -225 226 0
-34 -160 -207 225 226 0
-34 -160 -207 -225 -226 0
27 43 127 199 227 0
27 43 127 -199 -227 0
27 43 -127 199 -227 0
27 43 -127 -199 227 0
27 -43 127 199 -227 0
27 -43 127 -199 227 0
27 -43 -127 199 227 0
27 -43 -127 -199 -227 0
-27 43 127 199 -227 0
-27 43 127 -199 227 0
-27 43 -127 199 227 0
-27 43 -127 -199 -227 0
-27 -43 127 199 227 0
-27 -43 127 -199 -227 0
-27 -43 -127 199 -227 0
-27 -43 -127 -199 227 0
141 212 228 229 230 0
141 212 228 -229 -230 0
141 212 -228 229 -230 0
141 212 -228 -229 230 0
141 -212 228 229 -230 0
141 -212 228 -229 230 0
141 -212 -228 229 230 0
141 -212 -228 -229 -230 0
-141 212 228 229 -230 0
-141 212 228 -229 230 0
-141 212 -228 229 230 0
-141 212 -228 -229 -230 0
-141 -212 228 229 230 0
-141 -212 228 -229 -230 0
-141 -212 -228 229 -230 0
-141 -212 -228 -229 230 0
17 57 136 222 228 0
17 57 136 -222 -228 0
17 57 -136 222 -228 0
17 57 -136 -222 228 0
17 -57 136 222 -228 0
17 -57 136 -222 228 0
17 -57 -136 222 228 0
17 -57 -136 -222 -228 0
-17 57 136 222 -228 0
-17 57 136 -222 228 0
-17 57 -136 222 228 0
-17 57 -136 -222 -228 0
-17 -57 136 222 228 0
-17 -57 136 -222 -228 0
-17 -57 -136 222 -228 0
-17 -57 -136 -222 228 0
8 118 124 231 232 0
8 118 124 -231 -232 0
8 118 -124 231 -232 0
8 118 -124 -231 232 0
8 -118 124 231 -232 0
8 -118 124 -231 232 0
8 -118 -124 231 232 0
8 -118 -124 -231 -232 0
-8 118 124 231 -232 0
-8 118 124 -231 232 0
-8 118 -124 231 232 0
-8 118 -124 -231 -232 0
-8 -118 124 231 232 0
-8 -118 124 -231 -232 0
-8 -118 -124 231 -232 0
-8 -118 -124 -231 232 0
24 121 143 174 233 0
24 121 143 -174 -233 0
24 121 -143 174 -233 0
24 121 -143 -174 233 0
24 -121 143 174 -233 0
24 -121 143 -174 233 0
24 -121 -143 174 233 0
24 -121 -143 -174 -233 0
-24 121 143 174 -233 0
-24 121 143 -174 233 0
-24 121 -143 174 233 0
-24 121 -143 -174 -233 0
-24 -121 143 174 233 0
-24 -121 143 -174 -233 0
-24 -121 -143 174 -233 0
-24 -121 -143 -174 233 0
28 79 155 234 -235 0
28 79 155 -234 235 0
28 79 -155 234 235 0
28 79 -155 -234 -235 0
28 -79 155 234 235 0
28 -79 155 -234 -235 0
28 -79 -155 234 -235 0
28 -79 -155 -234 235 0
-28 79 155 234 235 0
-28 79 155 -234 -235 0
-28 79 -155 234 -235 0
-28 79 -155 -234 235 0
-28 -79 155 234 -235 0
-28 -79 155 -234 235 0
-28 -79 -155 234 235 0
-28 -79 -155 -234 -235 0
18 133 158 193 -236 0
18 133 158 -193 236 0
18 133 -158 193 236 0
18 133 -158 -193 -236 0
18 -133 158 193 236 0
18 -133 158 -193 -236 0
18 -133 -158 193 -236 0
18 -133 -158 -193 236 0
-18 133 158 193 236 0
-18 133 158 -193 -236 0
-18 133 -158 193 -236 0
-18 133 -158 -193 236 0
-18 -133 158 193 -236 0
-18 -133 158 -193 236 0
-18 -133 -158 193 236 0
-18 -133 -158 -193 -236 0
19 125 166 206 -237 0
19 125 166 -206 237 0
19 125 -166 206 237 0
19 125 -166 -206 -237 0
19 -125 166 206 237 0
19 -125 166 -206 -237 0
19 -125 -166 206 -237 0
19 -125 -166 -206 237 0
-19 125 166 206 237 0
-19 125 166 -206 -237 0
-19 125 -166 206 -237 0
-19 125 -166 -206 237 0
-19 -125 166 206 -237 0
-19 -125 166 -206 237 0
-19 -125 -166 206 237 0
-19 -125 -166 -206 -237 0
4 66 111 238 -239 0
4 66 111 -238 239 0
4 66 -111 238 239 0
4 66 -111 -238 -239 0
4 -66 111 238 239 0
4 -66 111 -238 -239 0
4 -66 -111 238 -239 0
4 -66 -111 -238 239 0
-4 66 111 238 239 0
-4 66 111 -238 -239 0
-4 66 -111 238 -239 0
-4 66 -111 -238 239 0
-4 -66 111 238 -239 0
-4 -66 111 -238 239 0
-4 -66 -111 238 239 0
-4 -66 -111 -238 -239 0
112 128 190 237 240 0
112 128 190 -237 -240 0
112 128 -190 237 -240 0
112 128 -190 -237 240 0
112 -128 190 237 -240 0
112 -128 190 -237 240 0
112 -128 -190 237 240 0
112 -128 -190 -237 -240 0
-112 128 190 237 -240 0
-112 128 190 -237 240 0
-112 128 -190 237 240 0
-112 128 -190 -237 -240 0
-112 -128 190 237 240 0
-112 -128 190 -237 -240 0
-112 -128 -190 237 -240 0
-112 -128 -190 -237 240 0
137 164 191 208 225 0
137 164 191 -208 -225 0
137 164 -191 208 -225 0
137 164 -191 -208 225 0
137 -164 191 208 -225 0
137 -164 191 -208 225 0
137 -164 -191 208 225 0
137 -164 -191 -208 -225 0
-137 164 191 208 -225 0
-137 164 191 -208 225 0
-137 164 -191 208 225 0
-137 164 -191 -208 -225 0
-137 -164 191 208 225 0
-137 -164 191 -208 -225 0
-137 -164 -191 208 -225 0
-137 -164 -191 -208 225 0
71 80 109 194 -234 0
71 80 109 -194 234 0
71 80 -109 194 234 0
71 80 -109 -194 -234 0
71 -80 109 194 234 0
71 -80 109 -194 -234 0
71 -80 -109 194 -234 0
71 -80 -109 -194 234 0
-71 80 109 194 234 0
-71 80 109 -194 -234 0
-71 80 -109 194 -234 0
-71 80 -109 -194 234 0
-71 -80 109 194 -234 0
-71 -80 109 -194 234 0
-71 -80 -109 194 234 0
-71 -80 -109 -194 -234 0
142 161 200 204 -241 0
142 161 200 -204 241 0
142 161 -200 204 241 0
142 161 -200 -204 -241 0
142 -161 200 204 241 0
142 -161 200 -204 -241 0
142 -161 -200 204 -241 0
142 -161 -200 -204 241 0
-142 161 200 204 241 0
-142 161 200 -204 -241 0
-142 161 -200 204 -241 0
-142 161 -200 -204 241 0
-142 -161 200 204 -241 0
-142 -161 200 -204 241 0
-142 -161 -200 204 241 0
-142 -161 -200 -204 -241 0
13 29 201 242 243 0
13 29 201 -242 -243 0
13 29 -201 242 -243 0
13 29 -201 -242 243 0
13 -29 201 242 -243 0
13 -29 201 -242 243 0
13 -29 -201 242 243 0
13 -29 -201 -242 -243 0
-13 29 201 242 -243 0
-13 29 201 -242 243 0
-13 29 -201 242 243 0
-13 29 -201 -242 -243 0
-13 -29 201 242 243 0
-13 -29 201 -242 -243 0
-13 -29 -201 242 -243 0
-13 -29 -201 -242 243 0
9 14 149 244 -245 0
9 14 149 -244 245 0
9 14 -149 244 245 0
9 14 -149 -244 -245 0
9 -14 149 244 245 0
9 -14 149 -244 -245 0
9 -14 -149 244 -245 0
9 -14 -149 -244 245 0
-9 14 149 244 245 0
-9 14 149 -244 -245 0
-9 14 -149 244 -245 0
-9 14 -149 -244 245 0
-9 -14 149 244 -245 0
-9 -14 149 -244 245 0
-9 -14 -149 244 245 0
-9 -14 -149 -244 -245 0
67 184 186 215 -226 0
67 184 186 -215 226 0
67 184 -186 215 226 0
67 184 -186 -215 -226 0
67 -184 186 215 226 0
67 -184 186 -215 -226 0
67 -184 -186 215 -226 0
67 -184 -186 -215 226 0
-67 184 186 215 226 0
-67 184 186 -215 -226 0
-67 184 -186 215 -226 0
-67 184 -186 -215 226 0
-67 -184 186 215 -226 0
-67 -184 186 -215 226 0
-67 -184 -186 215 226 0
-67 -184 -186 -215 -226 0
101 171 181 213 246 0
101 171 181 -213 -246 0
101 171 -181 213 -246 0
101 171 -181 -213 246 0
101 -171 181 213 -246 0
101 -171 181 -213 246 0
101 -171 -181 213 246 0
101 -171 -181 -213 -246 0
-101 171 181 213 -246 0
-101 171 181 -213 246 0
-101 171 -181 213 246 0
-101 171 -181 -213 -246 0
-101 -171 181 213 246 0
-101 -171 181 -213 -246 0
-101 -171 -181 213 -246 0
-101 -171 -181 -213 246 0
15 58 90 229 -247 0
15 58 90 -229 247 0
15 58 -90 229 247 0
15 58 -90 -229 -247 0
15 -58 90 229 247 0
15 -58 90 -229 -247 0
15 -58 -90 229 -247 0
15 -58 -90 -229 247 0
-15 58 90 229 247 0
-15 58 90 -229 -247 0
-15 58 -90 229 -247 0
-15 58 -90 -229 247 0
-15 -58 90 229 -247 0
-15 -58 90 -229 247 0
-15 -58 -90 229 247 0
-15 -58 -90 -229 -247 0
75 139 156 159 175 0
75 139 156 -159 -175 0
75 139 -156 159 -175 0
75 139 -156 -159 175 0
75 -139 156 159 -175 0
75 -139 156 -159 175 0
75 -139 -156 159 175 0
75 -139 -156 -159 -175 0
-75 139 156 159 -175 0
-75 139 156 -159 175 0
-75 139 -156 159 175 0
-75 139 -156 -159 -175 0
-75 -139 156 159 175 0
-75 -139 156 -159 -175 0
-75 -139 -156 159 -175 0
-75 -139 -156 -159 175 0
25 129 134 209 -248 0
25 129 134 -209 248 0
25 129 -134 209 248 0
25 129 -134 -209 -248 0
25 -129 134 209 248 0
25 -129 134 -209 -248 0
25 -129 -134 209 -248 0
25 -129 -134 -209 248 0
-25 129 134 209 248 0
-25 129 134 -209 -248 0
-25 129 -134 209 -248 0
-25 129 -134 -209 248 0
-25 -129 134 209 -248 0
-25 -129 134 -209 248 0
-25 -129 -134 209 248 0
-25 -129 -134 -209 -248 0
167 177 220 238 -242 0
167 177 220 -238 242 0
167 177 -220 238 242 0
167 177 -220 -238 -242 0
167 -177 220 238 242 0
167 -177 220 -238 -242 0
167 -177 -220 238 -242 0
167 -177 -220 -238 242 0
-167 177 220 238 242 0
-167 177 220 -238 -242 0
-167 177 -220 238 -242 0
-167 177 -220 -238 242 0
-167 -177 220 238 -242 0
-167 -177 220 -238 242 0
-167 -177 -220 238 242 0
-167 -177 -220 -238 -242 0
122 182 192 218 223 0
122 182 192 -218 -223 0
122 182 -192 218 -223 0
122 182 -192 -218 223 0
122 -182 192 218 -223 0
122 -182 192 -218 223 0
122 -182 -192 218 223 0
122 -182 -192 -218 -223 0
-122 182 192 218 -223 0
-122 182 192 -218 223 0
-122 182 -192 218 223 0
-122 182 -192 -218 -223 0
-122 -182 192 218 223 0
-122 -182 192 -218 -223 0
-122 -182 -192 218 -223 0
-122 -182 -192 -218 223 0
63 105 187 231 241 0
63 105 187 -231 -241 0
63 105 -187 231 -241 0
63 105 -187 -231 241 0
63 -105 187 231 -241 0
63 -105 187 -231 241 0
63 -105 -187 231 241 0
63 -105 -187 -231 -241 0
-63 105 187 231 -241 0
-63 105 187 -231 241 0
-63 105 -187 231 241 0
-63 105 -187 -231 -241 0
-63 -105 187 231 241 0
-63 -105 187 -231 -241 0
-63 -105 -187 231 -241 0
-63 -105 -187 -231 241 0
96 113 162 244 -249 0
96 113 162 -244 249 0
96 113 -162 244 249 0
96 113 -162 -244 -249 0
96 -113 162 244 249 0
96 -113 162 -244 -249 0
96 -113 -162 244 -249 0
96 -113 -162 -244 249 0
-96 113 162 244 249 0
-96 113 162 -244 -249 0
-96 113 -162 244 -249 0
-96 113 -162 -244 249 0
-96 -113 162 244 -249 0
-96 -113 162 -244 249 0
-96 -113 -162 244 249 0
-96 -113 -162 -244 -249 0
38 102 169 210 -216 0
38 102 169 -210 216 0
38 102 -169 210 216 0
38 102 -169 -210 -216 0
38 -102 169 210 216 0
38 -102 169 -210 -216 0
38 -102 -169 210 -216 0
38 -102 -169 -210 216 0
-38 102 169 210 216 0
-38 102 169 -210 -216 0
-38 102 -169 210 -216 0
-38 102 -169 -210 216 0
-38 -102 169 210 -216 0
-38 -102 169 -210 216 0
-38 -102 -169 210 216 0
-38 -102 -169 -210 -216 0
84 114 233 246 250 0
84 114 233 -246 -250 0
84 114 -233 246 -250 0
84 114 -233 -246 250 0
84 -114 233 246 -250 0
84 -114 233 -246 250 0
84 -114 -233 246 250 0
84 -114 -233 -246 -250 0
-84 114 233 246 -250 0
-84 114 233 -246 250 0
-84 114 -233 246 250 0
-84 114 -233 -246 -250 0
-84 -114 233 246 250 0
-84 -114 233 -246 -250 0
-84 -114 -233 246 -250 0
-84 -114 -233 -246 250 0
163 227 230 232 235 0
163 227 230 -232 -235 0
163 227 -230 232 -235 0
163 227 -230 -232 235 0
163 -227 230 232 -235 0
163 -227 230 -232 235 0
163 -227 -230 232 235 0
163 -227 -230 -232 -235 0
-163 227 230 232 -235 0
-163 227 230 -232 235 0
-163 227 -230 232 235 0
-163 227 -230 -232 -235 0
-163 -227 230 232 235 0
-163 -227 230 -232 -235 0
-163 -227 -230 232 -235 0
-163 -227 -230 -232 235 0
10 30 93 172 178 0
10 30 93 -172 -178 0
10 30 -93 172 -178 0
10 30 -93 -172 178 0
10 -30 93 172 -178 0
10 -30 93 -172 178 0
10 -30 -93 172 178 0
10 -30 -93 -172 -178 0
-10 30 93 172 -178 0
-10 30 93 -172 178 0
-10 30 -93 172 178 0
-10 30 -93 -172 -178 0
-10 -30 93 172 178 0
-10 -30 93 -172 -178 0
-10 -30 -93 172 -178 0
-10 -30 -93 -172 178 0
5 185 197 239 248 0
5 185 197 -239 -248 0
5 185 -197 239 -248 0
5 185 -197 -239 248 0
5 -185 197 239 -248 0
5 -185 197 -239 248 0
5 -185 -197 239 248 0
5 -185 -197 -239 -248 0
-5 185 197 239 -248 0
-5 185 197 -239 248 0
-5 185 -197 239 248 0
-5 185 -197 -239 -248 0
-5 -185 197 239 248 0
-5 -185 197 -239 -248 0
-5 -185 -197 239 -248 0
-5 -185 -197 -239 248 0
144 152 173 183 247 0
144 152 173 -183 -247 0
144 152 -173 183 -247 0
144 152 -173 -183 247 0
144 -152 173 183 -247 0
144 -152 173 -183 247 0
144 -152 -173 183 247 0
144 -152 -173 -183 -247 0
-144 152 173 183 -247 0
-144 152 173 -183 247 0
-144 152 -173 183 247 0
-144 152 -173 -183 -247 0
-144 -152 173 183 247 0
-144 -152 173 -183 -247 0
-144 -152 -173 183 -247 0
-144 -152 -173 -183 247 0
48 153 236 240 -243 0
48 153 236 -240 243 0
48 153 -236 240 243 0
48 153 -236 -240 -243 0
48 -153 236 240 243 0
48 -153 236 -240 -243 0
48 -153 -236 240 -243 0
48 -153 -236 -240 243 0
-48 153 236 240 243 0
-48 153 236 -240 -243 0
-48 153 -236 240 -243 0
-48 153 -236 -240 243 0
-48 -153 236 240 -243 0
-48 -153 236 -240 243 0
-48 -153 -236 240 243 0
-48 -153 -236 -240 -243 0
39 44 85 97 -219 0
39 44 85 -97 219 0
39 44 -85 97 219 0
39 44 -85 -97 -219 0
39 -44 85 97 219 0
39 -44 85 -97 -219 0
39 -44 -85 97 -219 0
39 -44 -85 -97 219 0
-39 44 85 97 219 0
-39 44 85 -97 -219 0
-39 44 -85 97 -219 0
-39 44 -85 -97 219 0
-39 -44 85 97 -219 0
-39 -44 85 -97 219 0
-39 -44 -85 97 219 0
-39 -44 -85 -97 -219 0
20 188 195 221 -224 0
20 188 195 -221 224 0
20 188 -195 221 224 0
20 188 -195 -221 -224 0
20 -188 195 221 224 0
20 -188 195 -221 -224 0
20 -188 -195 221 -224 0
20 -188 -195 -221 224 0
-20 188 195 221 224 0
-20 188 195 -221 -224 0
-20 188 -195 221 -224 0
-20 188 -195 -221 224 0
-20 -188 195 221 -224 0
-20 -188 195 -221 224 0
-20 -188 -195 221 224 0
-20 -188 -195 -221 -224 0
76 211 245 249 -250 0
76 211 245 -249 250 0
76 211 -245 249 250 0
76 211 -245 -249 -250 0
76 -211 245 249 250 0
76 -211 245 -249 -250 0
76 -211 -245 249 -250 0
76 -211 -245 -249 250 0
-76 211 245 249 250 0
-76 211 245 -249 -250 0
-76 211 -245 249 -250 0
-76 211 -245 -249 250 0
-76 -211 245 249 -250 0
-76 -211 245 -249 250 0
-76 -211 -245 249 250 0
-76 -211 -245 -249 -250 0
